NAME: berlin52
COMMENT: Local search tour for berlin52 (8492.201855400936)
TYPE: TOUR
DIMENSION: 52
TOUR_SECTION: 1 44 16 50 20 23 29 30 42 2 7 17 21 31 18 3 45 19 41 8 9 10 43 33 51 12 11 52 14 13 47 26 27 28 25 4 6 15 5 38 24 48 46 37 40 39 34 35 36 49 32 22 -1
EOF